NAME: random-52-521
TYPE: TSP
COMMENT: size=52 seed=521
DIMENSION: 106
EDGE_WEIGHT_TYPE: EUC_2D
NODE_COORD_SECTION
+0 447 733
-0 447 733
+1 311 954
-1 896 47
+2 492 947
-2 487 275
+3 828 236
-3 758 138
+4 564 221
-4 887 854
+5 464 70
-5 407 649
+6 80 815
-6 170 858
+7 384 380
-7 859 487
+8 760 579
-8 209 156
+9 196 711
-9 807 811
+10 991 495
-10 481 432
+11 352 206
-11 925 791
+12 200 128
-12 368 257
+13 287 303
-13 39 648
+14 913 967
-14 99 406
+15 425 472
-15 633 102
+16 763 134
-16 731 159
+17 817 507
-17 38 701
+18 667 801
-18 740 167
+19 793 434
-19 213 102
+20 58 919
-20 533 395
+21 913 26
-21 904 565
+22 531 344
-22 661 210
+23 351 773
-23 163 206
+24 578 191
-24 618 272
+25 508 116
-25 388 864
+26 617 359
-26 771 838
+27 308 411
-27 730 668
+28 809 967
-28 560 872
+29 281 709
-29 644 303
+30 51 676
-30 827 63
+31 737 585
-31 137 902
+32 308 447
-32 868 832
+33 256 854
-33 560 47
+34 875 780
-34 256 741
+35 761 392
-35 515 878
+36 672 426
-36 209 541
+37 778 788
-37 485 558
+38 440 911
-38 132 614
+39 867 627
-39 524 200
+40 620 170
-40 879 235
+41 940 531
-41 986 493
+42 715 403
-42 750 7
+43 67 150
-43 785 460
+44 793 549
-44 607 48
+45 831 12
-45 325 24
+46 354 121
-46 378 54
+47 473 964
-47 509 167
+48 71 740
-48 354 934
+49 617 868
-49 243 629
+50 498 540
-50 620 757
+51 911 565
-51 798 797
+52 258 732
-52 13 955
PRECEDENCE_SECTION
+0 -0
+1 -1
+2 -2
+3 -3
+4 -4
+5 -5
+6 -6
+7 -7
+8 -8
+9 -9
+10 -10
+11 -11
+12 -12
+13 -13
+14 -14
+15 -15
+16 -16
+17 -17
+18 -18
+19 -19
+20 -20
+21 -21
+22 -22
+23 -23
+24 -24
+25 -25
+26 -26
+27 -27
+28 -28
+29 -29
+30 -30
+31 -31
+32 -32
+33 -33
+34 -34
+35 -35
+36 -36
+37 -37
+38 -38
+39 -39
+40 -40
+41 -41
+42 -42
+43 -43
+44 -44
+45 -45
+46 -46
+47 -47
+48 -48
+49 -49
+50 -50
+51 -51
+52 -52
EOF
